LatticeConstant 1.0 Ang
%block LatticeVectors
 17.69719500 0.00000000 0.00000000
 0.00000000 15.46724600 0.00000000
 0.00000000 0.00000000 14.22596400
%endblock LatticeVectors

NumberOfAtoms 21
AtomicCoordinatesFormat Ang
%block AtomicCoordinatesAndAtomicSpecies
  0.39431700 -1.38417100 -0.37914400 1 #  1: C
 -0.83300300 -1.18914100  0.33238600 1 #  2: C
 -1.04967300  0.14307900  0.60581600 1 #  3: C
  0.18729700  1.10461900  0.02058600 2 #  4: S
  1.04380700 -0.19161100 -0.60809400 1 #  5: C
 -2.15497600  0.66765300  1.28635000 1 #  6: C
 -1.68633600 -2.23911900  0.69206700 3 #  7: N
  0.85443300 -2.64384400 -0.78103900 3 #  8: N
  2.26590100 -0.04181900 -1.27446400 1 #  9: C
 -1.15102400 -3.07962200  0.77571100 4 # 10: H
 -2.11983700 -2.04039300  1.57103500 4 # 11: H
  1.84955800 -2.61237600 -0.87449800 4 # 12: H
  0.61343700 -3.32988900 -0.09455300 4 # 13: H
  2.71320200  1.33126200 -1.68002500 1 # 14: C
  2.84867100 -0.83284900 -1.46060500 4 # 15: H
  2.17138000  2.13735700 -1.44203600 4 # 16: H
  3.58612700  1.43825700 -2.15600300 4 # 17: H
 -3.32156600 -0.22703200  1.58386400 1 # 18: C
 -2.16379000  1.61940900  1.59307700 4 # 19: H
 -3.29813200 -1.19676300  1.34081600 4 # 20: H
 -4.11106800  0.14766400  2.06996100 4 # 21: H
%endblock AtomicCoordinatesAndAtomicSpecies

NumberOfSpecies 4
%block ChemicalSpeciesLabel
 1 6 C
 2 16 S
 3 7 N
 4 1 H
%endblock ChemicalSpeciesLabel
